
Gurobi 7.5.2 (linux64) logging started Tue Apr 24 19:30:00 2018

Academic license - for non-commercial use only

Gurobi 7.5.2 (linux64) logging started Tue Apr 24 19:32:31 2018

Academic license - for non-commercial use only

Gurobi 7.5.2 (linux64) logging started Tue Apr 24 19:32:31 2018

Academic license - for non-commercial use only

Gurobi 7.5.2 (linux64) logging started Tue Apr 24 19:32:32 2018

Academic license - for non-commercial use only

Gurobi 7.5.2 (linux64) logging started Tue Apr 24 19:32:32 2018

Academic license - for non-commercial use only

Gurobi 7.5.2 (linux64) logging started Tue Apr 24 19:32:32 2018

Academic license - for non-commercial use only

Gurobi 7.5.2 (linux64) logging started Tue Apr 24 19:32:33 2018

Academic license - for non-commercial use only

Gurobi 7.5.2 (linux64) logging started Tue Apr 24 19:32:33 2018

Academic license - for non-commercial use only

Gurobi 7.5.2 (linux64) logging started Tue Apr 24 19:32:33 2018

Academic license - for non-commercial use only

Gurobi 7.5.2 (linux64) logging started Tue Apr 24 19:32:34 2018

Academic license - for non-commercial use only

Gurobi 7.5.2 (linux64) logging started Tue Apr 24 19:32:34 2018

Academic license - for non-commercial use only

Gurobi 7.5.2 (linux64) logging started Tue Apr 24 19:33:30 2018

Academic license - for non-commercial use only

Gurobi 7.5.2 (linux64) logging started Tue Apr 24 19:33:30 2018

Academic license - for non-commercial use only

Gurobi 7.5.2 (linux64) logging started Tue Apr 24 19:33:30 2018

Academic license - for non-commercial use only

Gurobi 7.5.2 (linux64) logging started Tue Apr 24 19:33:31 2018

Academic license - for non-commercial use only

Gurobi 7.5.2 (linux64) logging started Tue Apr 24 19:33:31 2018

Academic license - for non-commercial use only

Gurobi 7.5.2 (linux64) logging started Tue Apr 24 19:33:31 2018

Academic license - for non-commercial use only

Gurobi 7.5.2 (linux64) logging started Tue Apr 24 19:33:45 2018

Academic license - for non-commercial use only

Gurobi 7.5.2 (linux64) logging started Tue Apr 24 19:33:45 2018

Academic license - for non-commercial use only

Gurobi 7.5.2 (linux64) logging started Tue Apr 24 19:33:45 2018

Academic license - for non-commercial use only

Gurobi 7.5.2 (linux64) logging started Tue Apr 24 19:33:46 2018

Academic license - for non-commercial use only

Gurobi 7.5.2 (linux64) logging started Tue Apr 24 19:34:16 2018

Academic license - for non-commercial use only

Gurobi 7.5.2 (linux64) logging started Tue Apr 24 19:34:26 2018

Academic license - for non-commercial use only

Gurobi 7.5.2 (linux64) logging started Tue Apr 24 19:34:36 2018

Academic license - for non-commercial use only

Gurobi 7.5.2 (linux64) logging started Tue Apr 24 19:34:45 2018

Academic license - for non-commercial use only

Gurobi 7.5.2 (linux64) logging started Tue Apr 24 19:34:53 2018

Academic license - for non-commercial use only

Gurobi 7.5.2 (linux64) logging started Tue Apr 24 19:35:02 2018

Academic license - for non-commercial use only

Gurobi 7.5.2 (linux64) logging started Tue Apr 24 19:35:11 2018

Academic license - for non-commercial use only

Gurobi 7.5.2 (linux64) logging started Tue Apr 24 19:35:20 2018

Academic license - for non-commercial use only

Gurobi 7.5.2 (linux64) logging started Tue Apr 24 19:35:30 2018

Academic license - for non-commercial use only

Gurobi 7.5.2 (linux64) logging started Tue Apr 24 19:35:41 2018

Academic license - for non-commercial use only
